
Gurobi 9.1.2 (win64) logging started Tue Dec  7 09:52:08 2021

Gurobi Optimizer version 9.1.2 build v9.1.2rc0 (win64)
Thread count: 8 physical cores, 8 logical processors, using up to 8 threads
Optimize a model with 1 rows, 74 columns and 73 nonzeros
Model fingerprint: 0x2abf271c
Variable types: 1 continuous, 73 integer (73 binary)
Coefficient statistics:
  Matrix range     [1e+00, 1e+01]
  Objective range  [1e+00, 1e+00]
  Bounds range     [2e+01, 2e+01]
  RHS range        [1e+01, 1e+01]
Presolve time: 0.00s
Presolved: 1 rows, 74 columns, 73 nonzeros
Variable types: 1 continuous, 73 integer (73 binary)

Root simplex log...

Iteration    Objective       Primal Inf.    Dual Inf.      Time
       0   -2.0926712e+01   1.955697e-01   0.000000e+00     15s
       4   -2.0926712e+01   0.000000e+00   0.000000e+00     15s

Root relaxation: objective -2.092671e+01, 4 iterations, 0.00 seconds

    Nodes    |    Current Node    |     Objective Bounds      |     Work
 Expl Unexpl |  Obj  Depth IntInf | Incumbent    BestBd   Gap | It/Node Time

     0     0  -20.92671    0    3          -  -20.92671      -     -   14s
H    0     0                       0.8524049  -20.92671  2555%     -   15s
H    0     0                       0.6596021  -20.92671  3273%     -   15s
     0     0  -12.60425    0    3    0.65960  -12.60425  2011%     -   15s
H    0     0                       0.6094080  -12.60425  2168%     -   15s
H    0     0                       0.5276299  -12.60425  2489%     -   15s
     0     0  -10.69529    0    7    0.52763  -10.69529  2127%     -   15s
     0     0  -10.13350    0    5    0.52763  -10.13350  2021%     -   16s
     0     0  -10.11506    0    6    0.52763  -10.11506  2017%     -   16s
     0     0   -9.46400    0    5    0.52763   -9.46400  1894%     -   16s
H    0     0                       0.5276299   -9.46400  1894%     -   16s
     0     0   -8.71933    0    6    0.52763   -8.71933  1753%     -   16s
     0     0   -8.44658    0    7    0.52763   -8.44658  1701%     -   16s
     0     0   -8.43340    0    8    0.52763   -8.43340  1698%     -   16s
     0     0   -7.85899    0    7    0.52763   -7.85899  1589%     -   16s
     0     0   -7.85899    0    5    0.52763   -7.85899  1589%     -   16s
     0     0   -4.89807    0    7    0.52763   -4.89807  1028%     -   16s
     0     0   -4.78772    0    8    0.52763   -4.78772  1007%     -   16s
     0     0   -3.25874    0    7    0.52763   -3.25874   718%     -   16s
     0     0   -3.21320    0    6    0.52763   -3.21320   709%     -   16s
     0     0   -3.08369    0    7    0.52763   -3.08369   684%     -   16s
     0     0   -2.40185    0    7    0.52763   -2.40185   555%     -   16s
     0     0   -2.31093    0    6    0.52763   -2.31093   538%     -   16s
     0     0   -2.31031    0    6    0.52763   -2.31031   538%     -   16s
     0     0   -2.30636    0    6    0.52763   -2.30636   537%     -   16s
     0     0   -2.29425    0    8    0.52763   -2.29425   535%     -   16s
     0     0   -2.29398    0    8    0.52763   -2.29398   535%     -   16s
     0     0   -2.28926    0    6    0.52763   -2.28926   534%     -   16s
     0     0   -0.69428    0    3    0.52763   -0.69428   232%     -   16s
     0     0   -0.69428    0    3    0.52763   -0.69428   232%     -   16s

Cutting planes:
  MIR: 6
  Lazy constraints: 1

Explored 1 nodes (113 simplex iterations) in 16.67 seconds
Thread count was 8 (of 8 available processors)

Solution count 4: 0.52763 0.609408 0.659602 0.852405 

Optimal solution found (tolerance 1.00e-04)
Best objective 5.276299007186e-01, best bound 5.276299007186e-01, gap 0.0000%

User-callback calls 198, time in user-callback 20.33 sec
